NAME : 10_3_3_3_(36).dat
COMMENT : Henke, Speranza, Wäscher, 2015
TYPE : MCVRP
DIMENSION : 11
EDGE_WEIGHT_TYPE : DISTANCE_MATRIX
CAPACITY : 1000
VEHICLES : 2
PRODUCT TYPES : 3
COMPARTMENTS : 3
NODE_COORD_SECTION
1 50 50
2 26.71 41.98
3 98.68 23.59
4 7.54 16.95
5 80.13 94.74
6 33.19 65.91
7 58.1 87.58
8 47.36 87.98
9 93.13 78.4
10 38.98 3.78
11 23.41 20.98
DEMAND_SECTION
1 0 0 0
2 51 44 8
3 7 76 7
4 64 82 9
5 40 39 54
6 100 11 37
7 140 79 47
8 88 23 3
9 146 5 41
10 89 68 43
11 7 11 44
DEPOT_SECTION
1
EOF